set VV := 0 1 2 3 4 5 6 7 8 9 10 11 12 13 14 15 16 17 18 19 20 21 22 23 24 25 26 ;
set VS := 0 1 2 3 4 5 6 7 8 9 10 11 12 13 14 15 16 17 18 19 20 21 22 23 24 25 26 27 28 29 30 31 32 33 34 35 36 37 38 39 40 41 42 43 44 45 46 47 48 49 50 51 52 53 54 55 56 57 ;
param cv := 
0 12
1 16
2 24
3 14
4 16
5 11
6 15
7 15
8 21
9 16
10 15
11 19
12 13
13 25
14 23
15 19
16 16
17 19
18 13
19 23
20 10
21 18
22 24
23 14
24 23
25 12
26 24
;
param cs := 
0 22
1 28
2 28
3 31
4 20
5 26
6 26
7 31
8 30
9 29
10 28
11 36
12 38
13 31
14 27
15 27
16 27
17 35
18 34
19 25
20 27
21 36
22 27
23 29
24 24
25 29
26 24
27 28
28 40
29 28
30 24
31 23
32 38
33 20
34 31
35 38
36 26
37 27
38 25
39 23
40 30
41 33
42 21
43 25
44 34
45 33
46 27
47 28
48 37
49 34
50 39
51 35
52 25
53 25
54 22
55 20
56 37
57 25
;
param bv:	 0 1 2 3 4 5 6 7 8 9 10 11 12 13 14 15 16 17 18 19 20 21 22 23 24 25 26 := 
		0 0 18 0 0 0 0 19 0 0 0 0 0 0 0 16 0 0 0 0 0 0 0 0 0 0 0 0 
		1 0 0 0 0 0 0 0 0 0 0 12 0 23 0 12 0 0 0 0 10 0 0 0 0 0 0 0 
		2 0 0 0 0 0 0 0 0 0 0 0 0 0 0 0 0 0 20 0 0 0 0 0 0 0 0 0 
		3 0 0 0 0 0 0 0 0 0 0 25 0 0 0 0 0 0 14 0 0 0 0 11 0 0 0 0 
		4 0 0 0 0 0 0 0 0 23 0 0 19 0 0 0 0 22 0 0 0 0 0 0 0 0 0 0 
		5 0 0 0 0 0 0 23 0 0 0 0 0 10 0 0 0 0 0 0 0 20 0 0 0 16 0 0 
		6 0 0 0 0 0 0 0 0 0 0 0 0 0 0 0 0 0 0 0 0 0 0 0 0 0 0 0 
		7 0 0 0 0 0 0 0 0 0 0 12 0 0 0 0 21 0 0 0 0 0 0 0 0 0 0 0 
		8 0 0 0 0 0 0 0 0 0 0 0 0 0 0 0 20 0 0 0 0 16 0 0 25 0 0 0 
		9 0 0 0 0 0 0 0 0 0 0 0 0 0 0 0 0 0 19 0 0 0 0 0 0 0 0 0 
		10 0 0 0 0 0 0 0 0 0 0 0 0 0 0 0 0 0 0 0 0 0 0 0 0 24 0 0 
		11 0 0 0 0 0 0 0 0 0 0 0 0 0 0 0 0 0 0 0 0 0 0 0 0 0 0 0 
		12 0 0 0 0 0 0 0 0 0 0 0 0 0 0 0 24 0 0 0 0 0 0 0 0 0 0 0 
		13 0 0 0 0 0 0 0 0 0 0 0 0 0 0 0 0 16 0 0 0 0 0 0 0 0 0 0 
		14 0 0 0 0 0 0 0 0 0 0 0 0 0 0 0 13 0 0 0 0 0 0 0 0 0 0 0 
		15 0 0 0 0 0 0 0 0 0 0 0 0 0 0 0 0 0 0 0 23 0 0 0 19 0 0 0 
		16 0 0 0 0 0 0 0 0 0 0 0 0 0 0 0 0 0 0 17 0 0 10 0 0 0 0 0 
		17 0 0 0 0 0 0 0 0 0 0 0 0 0 0 0 0 0 0 0 0 0 0 0 0 0 16 13 
		18 0 0 0 0 0 0 0 0 0 0 0 0 0 0 0 0 0 0 0 0 0 0 0 12 0 0 0 
		19 0 0 0 0 0 0 0 0 0 0 0 0 0 0 0 0 0 0 0 0 0 0 0 0 0 0 0 
		20 0 0 0 0 0 0 0 0 0 0 0 0 0 0 0 0 0 0 0 0 0 0 0 0 0 0 0 
		21 0 0 0 0 0 0 0 0 0 0 0 0 0 0 0 0 0 0 0 0 0 0 0 0 0 14 0 
		22 0 0 0 0 0 0 0 0 0 0 0 0 0 0 0 0 0 0 0 0 0 0 0 0 0 0 0 
		23 0 0 0 0 0 0 0 0 0 0 0 0 0 0 0 0 0 0 0 0 0 0 0 0 0 0 0 
		24 0 0 0 0 0 0 0 0 0 0 0 0 0 0 0 0 0 0 0 0 0 0 0 0 0 0 0 
		25 0 0 0 0 0 0 0 0 0 0 0 0 0 0 0 0 0 0 0 0 0 0 0 0 0 0 16 
		26 0 0 0 0 0 0 0 0 0 0 0 0 0 0 0 0 0 0 0 0 0 0 0 0 0 0 0 
;
param bs:	 0 1 2 3 4 5 6 7 8 9 10 11 12 13 14 15 16 17 18 19 20 21 22 23 24 25 26 27 28 29 30 31 32 33 34 35 36 37 38 39 40 41 42 43 44 45 46 47 48 49 50 51 52 53 54 55 56 57 := 
		0 0 0 0 35 0 35 0 0 0 0 0 0 0 0 0 0 0 0 29 0 0 0 0 0 0 0 0 0 0 0 0 0 0 0 0 0 0 0 0 0 0 0 0 21 0 0 0 0 0 0 0 0 0 0 0 0 0 0 
		1 0 0 0 0 0 40 0 0 0 0 0 0 0 0 0 0 0 0 40 0 0 0 0 29 0 0 0 0 0 0 20 0 0 0 33 0 0 0 0 0 0 0 0 0 0 31 0 0 0 0 0 0 0 0 0 0 0 0 
		2 0 0 0 0 0 0 0 0 0 0 0 0 0 0 0 0 31 0 0 0 0 0 0 0 0 0 0 0 0 0 22 0 33 0 0 23 0 0 0 0 0 0 0 0 0 32 0 0 0 0 0 0 0 26 0 0 0 0 
		3 35 0 0 0 24 0 0 0 31 0 0 0 0 0 36 0 0 0 0 0 0 0 29 0 0 0 0 0 0 0 0 0 0 0 0 0 0 0 0 21 0 34 0 0 0 0 0 0 0 23 26 0 0 0 0 0 0 0 
		4 0 0 0 24 0 0 28 0 0 0 0 0 0 0 40 0 0 0 0 0 0 33 0 0 0 0 0 0 0 0 0 0 0 0 0 0 0 0 0 37 0 30 0 0 0 0 0 0 0 0 0 0 0 0 0 0 0 0 
		5 35 40 0 0 0 0 0 25 0 0 0 0 0 0 0 0 0 0 0 21 0 34 0 0 0 0 0 0 0 0 0 0 0 0 0 0 0 35 0 0 0 0 0 0 0 0 0 26 0 0 0 0 0 22 0 33 0 0 
		6 0 0 0 0 28 0 0 0 0 0 0 0 34 29 0 0 0 0 0 0 22 0 0 0 0 36 38 0 0 27 0 0 0 0 0 0 0 0 0 0 0 26 0 0 0 0 29 0 0 0 0 0 0 0 0 0 0 0 
		7 0 0 0 0 0 25 0 0 0 0 0 0 0 0 0 0 0 0 0 0 0 0 0 0 0 0 0 0 0 0 0 0 0 0 0 0 0 0 0 0 0 0 0 0 0 0 0 0 0 0 0 0 0 37 0 0 0 0 
		8 0 0 0 31 0 0 0 0 0 0 0 0 0 0 0 0 0 0 0 0 0 0 0 0 0 0 0 0 0 0 0 0 0 40 0 33 40 0 0 26 0 20 0 0 0 0 0 0 0 40 0 0 0 0 27 0 0 0 
		9 0 0 0 0 0 0 0 0 0 0 28 27 0 0 0 0 0 22 0 0 25 24 0 0 0 0 0 0 22 0 38 32 38 0 0 0 0 39 24 0 0 28 0 0 0 0 0 0 0 0 0 0 0 0 0 0 0 0 
		10 0 0 0 0 0 0 0 0 0 28 0 40 0 20 0 0 0 0 0 0 0 0 0 0 0 0 0 0 0 0 0 0 31 0 0 0 0 0 0 0 0 0 0 0 0 0 30 38 0 0 0 0 0 27 32 0 0 38 
		11 0 0 0 0 0 0 0 0 0 27 40 0 0 0 0 29 0 35 0 0 0 32 0 0 0 0 0 25 0 0 35 0 0 0 0 0 0 33 0 20 38 0 0 0 0 0 25 0 0 0 40 0 0 0 0 0 0 0 
		12 0 0 0 0 0 0 34 0 0 0 0 0 0 0 0 0 0 0 0 35 0 0 0 0 0 0 0 0 0 0 40 0 0 30 0 0 0 0 0 0 0 0 0 0 0 0 0 0 0 0 0 0 0 0 0 0 0 0 
		13 0 0 0 0 0 0 29 0 0 0 20 0 0 0 0 0 0 0 0 0 28 0 0 0 0 28 0 36 0 40 0 0 0 0 0 0 0 0 0 0 30 0 0 0 0 0 25 0 0 0 0 0 0 0 0 0 0 0 
		14 0 0 0 36 40 0 0 0 0 0 0 0 0 0 0 0 0 0 37 0 0 0 0 0 0 0 0 0 0 0 0 0 0 0 0 0 0 0 0 0 0 0 0 0 0 0 0 0 0 0 0 0 0 0 0 0 0 0 
		15 0 0 0 0 0 0 0 0 0 0 0 29 0 0 0 0 0 0 0 36 0 0 0 0 0 0 0 28 22 0 33 0 28 0 0 0 26 0 0 32 0 0 0 0 0 0 38 0 31 0 0 0 0 0 0 29 0 0 
		16 0 0 31 0 0 0 0 0 0 0 0 0 0 0 0 0 0 0 0 0 0 0 0 0 0 0 0 0 0 0 0 29 0 0 0 0 0 0 0 0 0 0 0 0 0 0 0 0 0 0 34 0 0 0 0 0 0 0 
		17 0 0 0 0 0 0 0 0 0 22 0 35 0 0 0 0 0 0 0 0 0 0 0 0 0 0 0 0 0 0 0 0 34 0 20 0 0 0 0 0 0 0 0 0 0 31 0 0 0 0 0 0 0 0 0 0 0 0 
		18 29 40 0 0 0 0 0 0 0 0 0 0 0 0 37 0 0 0 0 0 0 0 0 0 0 38 0 0 38 0 0 0 0 0 0 0 0 0 0 31 0 0 0 0 0 0 0 0 0 0 0 0 0 0 0 0 0 0 
		19 0 0 0 0 0 21 0 0 0 0 0 0 35 0 0 36 0 0 0 0 0 0 0 0 25 0 0 0 37 0 0 0 0 0 38 0 0 24 0 0 0 0 0 0 0 0 0 0 24 0 0 0 0 0 39 0 0 0 
		20 0 0 0 0 0 0 22 0 0 25 0 0 0 28 0 0 0 0 0 0 0 0 0 0 35 0 0 38 0 0 0 0 0 0 0 25 0 0 0 0 0 28 0 0 0 30 0 0 0 0 0 0 0 0 0 0 0 0 
		21 0 0 0 0 33 34 0 0 0 24 0 32 0 0 0 0 0 0 0 0 0 0 0 0 20 0 0 0 0 0 34 0 21 24 0 0 0 0 0 0 0 37 30 0 0 0 0 28 0 0 0 0 22 0 38 0 0 0 
		22 0 0 0 29 0 0 0 0 0 0 0 0 0 0 0 0 0 0 0 0 0 0 0 0 0 0 0 0 0 0 0 0 0 0 0 0 0 0 0 0 39 0 40 0 40 40 28 0 0 0 0 38 0 0 0 0 0 0 
		23 0 29 0 0 0 0 0 0 0 0 0 0 0 0 0 0 0 0 0 0 0 0 0 0 0 0 0 0 31 0 0 0 0 0 0 0 36 0 0 0 22 0 0 0 22 0 0 0 0 0 0 0 0 24 0 0 0 0 
		24 0 0 0 0 0 0 0 0 0 0 0 0 0 0 0 0 0 0 0 25 35 20 0 0 0 0 0 0 0 0 21 0 31 22 0 0 0 28 0 0 0 0 0 0 0 0 0 0 0 0 0 0 0 0 37 0 0 0 
		25 0 0 0 0 0 0 36 0 0 0 0 0 0 28 0 0 0 0 38 0 0 0 0 0 0 0 0 0 0 0 0 31 21 0 0 36 0 0 0 0 0 0 0 0 0 0 0 0 20 0 0 0 0 0 0 0 0 0 
		26 0 0 0 0 0 0 38 0 0 0 0 0 0 0 0 0 0 0 0 0 0 0 0 0 0 0 0 0 0 0 0 0 0 0 0 0 0 0 26 0 0 0 0 0 0 31 0 0 0 0 0 0 0 0 0 0 0 0 
		27 0 0 0 0 0 0 0 0 0 0 0 25 0 36 0 28 0 0 0 0 38 0 0 0 0 0 0 0 38 0 0 0 0 40 0 28 0 40 0 0 0 0 0 0 0 0 0 0 0 0 0 0 0 0 23 0 0 35 
		28 0 0 0 0 0 0 0 0 0 22 0 0 0 0 0 22 0 0 38 37 0 0 0 31 0 0 0 38 0 0 0 0 27 0 0 0 0 0 0 0 39 0 37 0 0 0 23 0 0 0 0 0 36 0 0 0 0 30 
		29 0 0 0 0 0 0 27 0 0 0 0 0 0 40 0 0 0 0 0 0 0 0 0 0 0 0 0 0 0 0 0 0 0 0 0 0 0 0 0 0 0 37 0 0 0 25 0 0 0 0 0 37 0 0 23 0 0 0 
		30 0 20 22 0 0 0 0 0 0 38 0 35 40 0 0 33 0 0 0 0 0 34 0 0 21 0 0 0 0 0 0 0 37 0 0 0 0 0 0 0 0 0 0 0 0 0 0 0 0 0 0 0 0 0 0 0 0 0 
		31 0 0 0 0 0 0 0 0 0 32 0 0 0 0 0 0 29 0 0 0 0 0 0 0 0 31 0 0 0 0 0 0 0 0 0 0 0 0 0 0 0 0 0 0 0 0 0 0 0 0 0 0 0 0 0 0 0 0 
		32 0 0 33 0 0 0 0 0 0 38 31 0 0 0 0 28 0 34 0 0 0 21 0 0 31 21 0 0 27 0 37 0 0 0 0 0 0 20 36 0 38 0 20 0 22 0 0 0 0 0 0 0 0 0 0 31 0 0 
		33 0 0 0 0 0 0 0 0 40 0 0 0 30 0 0 0 0 0 0 0 0 24 0 0 22 0 0 40 0 0 0 0 0 0 0 0 0 34 0 0 0 0 0 0 0 24 0 40 0 0 0 0 0 22 0 0 25 0 
		34 0 33 0 0 0 0 0 0 0 0 0 0 0 0 0 0 0 20 0 38 0 0 0 0 0 0 0 0 0 0 0 0 0 0 0 0 22 0 0 0 0 0 0 0 0 0 0 0 0 0 0 0 0 0 0 0 0 0 
		35 0 0 23 0 0 0 0 0 33 0 0 0 0 0 0 0 0 0 0 0 25 0 0 0 0 36 0 28 0 0 0 0 0 0 0 0 38 0 0 0 0 0 0 0 0 0 40 0 0 0 0 0 0 0 25 27 0 0 
		36 0 0 0 0 0 0 0 0 40 0 0 0 0 0 0 26 0 0 0 0 0 0 0 36 0 0 0 0 0 0 0 0 0 0 22 38 0 0 0 0 0 0 0 0 0 0 0 0 0 0 0 0 0 0 0 40 0 0 
		37 0 0 0 0 0 35 0 0 0 39 0 33 0 0 0 0 0 0 0 24 0 0 0 0 28 0 0 40 0 0 0 0 20 34 0 0 0 0 0 0 0 0 0 0 0 34 0 0 0 0 0 37 0 27 0 0 0 0 
		38 0 0 0 0 0 0 0 0 0 24 0 0 0 0 0 0 0 0 0 0 0 0 0 0 0 0 26 0 0 0 0 0 36 0 0 0 0 0 0 0 0 0 0 0 0 0 0 0 0 0 0 0 0 0 0 0 0 0 
		39 0 0 0 21 37 0 0 0 26 0 0 20 0 0 0 32 0 0 31 0 0 0 0 0 0 0 0 0 0 0 0 0 0 0 0 0 0 0 0 0 0 33 0 0 40 0 0 0 0 0 0 38 0 0 0 0 0 0 
		40 0 0 0 0 0 0 0 0 0 0 0 38 0 30 0 0 0 0 0 0 0 0 39 22 0 0 0 0 39 0 0 0 38 0 0 0 0 0 0 0 0 0 0 0 0 0 0 0 0 0 0 0 0 0 0 0 0 0 
		41 0 0 0 34 30 0 26 0 20 28 0 0 0 0 0 0 0 0 0 0 28 37 0 0 0 0 0 0 0 37 0 0 0 0 0 0 0 0 0 33 0 0 0 0 0 0 0 40 0 0 32 0 34 0 0 0 0 0 
		42 0 0 0 0 0 0 0 0 0 0 0 0 0 0 0 0 0 0 0 0 0 30 40 0 0 0 0 0 37 0 0 0 20 0 0 0 0 0 0 0 0 0 0 0 0 0 0 0 0 38 0 0 0 0 0 0 0 39 
		43 21 0 0 0 0 0 0 0 0 0 0 0 0 0 0 0 0 0 0 0 0 0 0 0 0 0 0 0 0 0 0 0 0 0 0 0 0 0 0 0 0 0 0 0 0 0 0 0 0 0 0 0 0 0 0 0 0 37 
		44 0 0 0 0 0 0 0 0 0 0 0 0 0 0 0 0 0 0 0 0 0 0 40 22 0 0 0 0 0 0 0 0 22 0 0 0 0 0 0 40 0 0 0 0 0 0 0 0 20 0 0 36 0 0 0 0 0 0 
		45 0 31 32 0 0 0 0 0 0 0 0 0 0 0 0 0 0 31 0 0 30 0 40 0 0 0 31 0 0 25 0 0 0 24 0 0 0 34 0 0 0 0 0 0 0 0 0 0 0 0 0 0 22 0 0 0 0 0 
		46 0 0 0 0 0 0 29 0 0 0 30 25 0 25 0 38 0 0 0 0 0 0 28 0 0 0 0 0 23 0 0 0 0 0 0 40 0 0 0 0 0 0 0 0 0 0 0 24 0 0 0 0 0 0 0 0 0 0 
		47 0 0 0 0 0 26 0 0 0 0 38 0 0 0 0 0 0 0 0 0 0 28 0 0 0 0 0 0 0 0 0 0 0 40 0 0 0 0 0 0 0 40 0 0 0 0 24 0 0 0 0 0 31 0 0 0 0 20 
		48 0 0 0 0 0 0 0 0 0 0 0 0 0 0 0 31 0 0 0 24 0 0 0 0 0 20 0 0 0 0 0 0 0 0 0 0 0 0 0 0 0 0 0 0 20 0 0 0 0 0 0 0 0 27 0 0 0 0 
		49 0 0 0 23 0 0 0 0 40 0 0 0 0 0 0 0 0 0 0 0 0 0 0 0 0 0 0 0 0 0 0 0 0 0 0 0 0 0 0 0 0 0 38 0 0 0 0 0 0 0 0 0 0 0 0 0 0 0 
		50 0 0 0 26 0 0 0 0 0 0 0 40 0 0 0 0 34 0 0 0 0 0 0 0 0 0 0 0 0 0 0 0 0 0 0 0 0 0 0 0 0 32 0 0 0 0 0 0 0 0 0 0 0 0 35 0 0 0 
		51 0 0 0 0 0 0 0 0 0 0 0 0 0 0 0 0 0 0 0 0 0 0 38 0 0 0 0 0 0 37 0 0 0 0 0 0 0 37 0 38 0 0 0 0 36 0 0 0 0 0 0 0 0 0 0 0 0 0 
		52 0 0 0 0 0 0 0 0 0 0 0 0 0 0 0 0 0 0 0 0 0 22 0 0 0 0 0 0 36 0 0 0 0 0 0 0 0 0 0 0 0 34 0 0 0 22 0 31 0 0 0 0 0 0 0 0 0 0 
		53 0 0 26 0 0 22 0 37 0 0 27 0 0 0 0 0 0 0 0 0 0 0 0 24 0 0 0 0 0 0 0 0 0 22 0 0 0 27 0 0 0 0 0 0 0 0 0 0 27 0 0 0 0 0 0 0 0 0 
		54 0 0 0 0 0 0 0 0 27 0 32 0 0 0 0 0 0 0 0 39 0 38 0 0 37 0 0 23 0 23 0 0 0 0 0 25 0 0 0 0 0 0 0 0 0 0 0 0 0 0 35 0 0 0 0 0 0 0 
		55 0 0 0 0 0 33 0 0 0 0 0 0 0 0 0 29 0 0 0 0 0 0 0 0 0 0 0 0 0 0 0 0 31 0 0 27 40 0 0 0 0 0 0 0 0 0 0 0 0 0 0 0 0 0 0 0 0 0 
		56 0 0 0 0 0 0 0 0 0 0 0 0 0 0 0 0 0 0 0 0 0 0 0 0 0 0 0 0 0 0 0 0 0 25 0 0 0 0 0 0 0 0 0 0 0 0 0 0 0 0 0 0 0 0 0 0 0 0 
		57 0 0 0 0 0 0 0 0 0 0 38 0 0 0 0 0 0 0 0 0 0 0 0 0 0 0 0 35 30 0 0 0 0 0 0 0 0 0 0 0 0 0 39 37 0 0 0 20 0 0 0 0 0 0 0 0 0 0 
;
